c ---- [ banner ] ------------------------------------------------------------
c
c Kissat SAT Solver
c 
c Copyright (c) 2021-2024 Armin Biere University of Freiburg
c Copyright (c) 2019-2021 Armin Biere Johannes Kepler University Linz
c 
c Version 4.0.1 43f02cf3e992cb44653b35e5cb26f93281552ae0
c gcc (Ubuntu 13.2.0-23ubuntu4) 13.2.0 -W -Wall -O3 -DNDEBUG
c Thu Sep 12 12:27:46 CEST 2024 Linux abryzen9 6.8.0-41-generic x86_64
c
c ---- [ parsing ] -----------------------------------------------------------
c
c opened and reading DIMACS file:
c
c   /data/artifact/AMulet2.0_artifact/exp4/cnf_sopb_64/64_64_U1_WT_LF_Multgen_sopb.cnf
c
c parsed 'p cnf 30027 132972' header
c closing input after reading 2669893 bytes (3 MB)
c finished parsing after 0.02 seconds
c
c ---- [ options ] -----------------------------------------------------------
c
c --stable=0                       (different from default '1')
c
c ---- [ solving ] -----------------------------------------------------------
c
c  seconds switched rate     size/glue tier1  binary           remaining
c         MB reductions conflicts size  tier2     irredundant
c          level restarts redundant glue  trail           variables
c
c *  0.02 10 0 0 0  0 0   0   0 0.0 0 0 0 0 0% 13375 119595 30024 100%
c (  0.03 12 0 0 0  0 0   0   0 0.0 0 0 0 0 0% 13375 119595 30024 100%
c .  0.04 13 0 0 0  0 0   0   0 0.0 0 0 0 0 0% 13371 119595 30024 100%
c c  0.10 18 0 0 0  0 0   0   0 0.0 0 0 0 0 0% 18228 110140 27598 92%
c d  0.11 18 0 0 0  0 0   0   0 0.0 0 0 0 0 0% 13376 110140 27598 92%
c =  0.14 18 0 0 0  0 0   0   0 0.0 0 0 0 0 0% 13252 110139 27581 92%
c d  0.15 18 0 0 0  0 0   0   0 0.0 0 0 0 0 0% 13217 110139 27581 92%
c f  0.23 18 0 0 0  0 0   0   0 0.0 0 0 0 0 0% 18734 101386 30708 102%
c e  0.37 24 0 0 0  0 0   0   0 0.0 0 0 0 0 0% 11558 110802 21334 71%
c )  0.37 24 0 0 0  0 0   0   0 0.0 0 0 0 0 0% 11558 110802 21334 71%
c {  0.38 25 0 0 0  0 0   0   0 0.0 0 0 2 6 0% 11558 110802 21334 71%
c -  0.55 25 311 0 1 307 47 1001 696 3.9 20 5 3 8 17% 11652 110800 21334 71%
c -  0.69 25 254 0 2 463 45 2001 1294 3.8 21 5 3 8 19% 11712 110799 21334 71%
c c  0.83 23 288 0 2 538 48 2504 1727 4.3 24 6 3 8 20% 11740 110736 21319 71%
c d  0.83 23 288 0 2 538 48 2504 1720 4.3 24 6 3 8 20% 11710 110736 21319 71%
c u  0.85 23 288 0 2 538 48 2504 1360 4.3 24 6 3 8 20% 11726 110736 21319 71%
c v  0.86 24 288 0 2 538 48 2504 1172 4.3 24 6 3 8 20% 11726 110736 21319 71%
c w  0.88 24 288 0 2 538 48 2504 1172 4.3 24 6 3 8 20% 11726 110736 21319 71%
c x  0.89 24 288 0 2 538 48 2504 1172 4.3 24 6 3 8 20% 11819 110470 21319 71%
c =  0.95 24 288 0 2 538 48 2504 1172 4.3 24 6 3 8 20% 11831 110470 21313 71%
c
c  seconds   switched   rate       size/glue tier1    binary           remaining
c         MB  reductions conflicts       size  tier2      irredundant
c           level restarts    redundant    glue   trail           variables
c
c d  0.96 24 288 0 2 538 48 2504 1172 4.3 24 6 3 8 20% 11815 110470 21313 71%
c t  0.96 24 288 0 2 538 48 2504 1172 4.3 24 6 3 8 20% 11806 110470 21313 71%
c f  0.98 24 288 0 2 538 48 2504 1172 4.3 24 6 3 8 20% 12734 108688 22066 73%
c u  1.00 24 288 0 2 538 48 2504 1136 4.3 24 6 3 8 20% 12735 108688 22066 73%
c v  1.01 24 288 0 2 538 48 2504 1104 4.3 24 6 3 8 20% 12735 108688 22066 73%
c w  1.04 24 288 0 2 538 48 2504 1097 4.3 24 6 3 8 20% 12735 108688 22066 73%
c x  1.05 24 288 0 2 538 48 2504 1097 4.3 24 6 3 8 20% 12735 108680 22066 73%
c =  1.11 24 288 0 2 538 48 2504 1097 4.3 24 6 3 8 20% 12995 108680 21936 73%
c d  1.12 24 288 0 2 538 48 2504 1094 4.3 24 6 3 8 20% 12730 108680 21936 73%
c f  1.15 24 288 0 2 538 48 2504 1094 4.3 24 6 3 8 20% 13821 107019 22493 75%
c -  1.29 25 309 0 3 642 43 3415 1659 3.8 21 5 3 9 22% 13875 107016 22493 75%
c -  1.66 25 350 0 4 831 45 5149 2769 3.7 20 5 3 9 24% 13969 107012 22493 75%
c -  2.06 25 398 0 5 1075 44 7149 3899 3.7 20 5 2 9 24% 14080 106998 22493 75%
c c  2.33 25 388 0 5 1180 44 7711 4369 3.8 21 5 2 9 24% 14134 106818 22459 75%
c d  2.34 25 388 0 5 1180 44 7711 4336 3.8 21 5 2 9 24% 14061 106818 22456 75%
c u  2.36 25 388 0 5 1180 44 7711 3787 3.8 21 5 2 9 24% 14085 106818 22456 75%
c v  2.38 25 388 0 5 1180 44 7711 3243 3.8 21 5 2 9 24% 14086 106818 22456 75%
c w  2.42 25 388 0 5 1180 44 7711 3229 3.8 21 5 2 9 24% 14086 106818 22456 75%
c =  2.52 25 388 0 5 1180 44 7711 3229 3.8 21 5 2 9 24% 14434 106818 22282 74%
c d  2.52 25 388 0 5 1180 44 7711 3223 3.8 21 5 2 9 24% 14013 106818 22280 74%
c
c  seconds   switched    rate       size/glue tier1    binary           remaining
c         MB  reductions  conflicts       size  tier2      irredundant
c           level  restarts    redundant    glue   trail           variables
c
c t  2.54 25 388 0 5 1180 44 7711 3223 3.8 21 5 2 9 24% 14002 106818 22280 74%
c f  2.59 25 388 0 5 1180 44 7711 3223 3.8 21 5 2 9 24% 14526 106025 22544 75%
c u  2.66 25 388 0 5 1180 44 7711 3132 3.8 21 5 2 9 24% 14529 106025 22544 75%
c v  2.68 25 388 0 5 1180 44 7711 3049 3.8 21 5 2 9 24% 14529 106025 22544 75%
c w  2.73 26 388 0 5 1180 44 7711 3047 3.8 21 5 2 9 24% 14529 106025 22544 75%
c x  2.74 26 388 0 5 1180 44 7711 3047 3.8 21 5 2 9 24% 14529 105929 22544 75%
c =  2.82 26 388 0 5 1180 44 7711 3047 3.8 21 5 2 9 24% 15005 105923 22306 74%
c d  2.82 26 388 0 5 1180 44 7711 3042 3.8 21 5 2 9 24% 14387 105923 22305 74%
c t  2.84 26 388 0 5 1180 44 7711 3042 3.8 21 5 2 9 24% 14362 105923 22305 74%
c f  2.88 26 388 0 5 1180 44 7711 3042 3.8 21 5 2 9 24% 17059 101858 23660 79%
c -  3.20 27 396 0 6 1347 42 9391 3847 4.0 23 6 2 8 24% 17160 101857 23660 79%
c o  3.30 27 403 0 6 1410 42 10030 4360 4.0 23 6 2 8 24% 17194 101857 23660 79%
c -  3.72 27 395 0 7 1632 41 11840 5283 4.2 25 6 2 8 25% 17262 101856 23660 79%
c s  3.87 27 387 0 7 1707 41 12517 5846 4.1 25 6 2 8 25% 17295 99897 23660 79%
c e  3.96 27 387 0 7 1707 41 12517 5846 4.1 25 6 2 8 25% 16330 100569 22858 76%
c s  3.96 27 387 0 7 1707 41 12517 5846 4.1 25 6 2 8 25% 16335 100071 22858 76%
c e  3.98 27 387 0 7 1707 41 12517 5846 4.1 25 6 2 8 25% 16197 100146 22793 76%
c ^  3.98 27 387 0 7 1707 41 12517 5846 4.1 25 6 2 8 25% 16197 100146 22793 76%
c -  4.31 27 370 0 8 1826 39 14486 6254 4.0 24 6 2 8 25% 16286 100144 22793 76%
c d  4.45 27 384 0 8 1920 39 15795 7337 4.0 24 6 2 8 25% 15829 100134 22482 75%
c
c  seconds   switched    rate        size/glue tier1    binary           remaining
c         MB  reductions   conflicts       size  tier2      irredundant
c           level  restarts     redundant    glue   trail           variables
c
c u  4.47 27 384 0 8 1920 39 15795 6363 4.0 24 6 2 8 25% 15857 100134 22482 75%
c v  4.50 27 384 0 8 1920 39 15795 5463 4.0 24 6 2 8 25% 15858 100134 22482 75%
c w  4.58 27 384 0 8 1920 39 15795 5448 4.0 24 6 2 8 25% 15858 100134 22482 75%
c =  4.73 27 384 0 8 1920 39 15795 5448 4.0 24 6 2 8 25% 16650 100134 22086 74%
c d  4.74 27 384 0 8 1920 39 15795 5402 4.0 24 6 2 8 25% 15744 100134 22086 74%
c t  4.75 27 384 0 8 1920 39 15795 5402 4.0 24 6 2 8 25% 15666 100134 22086 74%
c f  4.80 27 384 0 8 1920 39 15795 5402 4.0 24 6 2 8 25% 15748 99937 22136 74%
c u  4.87 27 384 0 8 1920 39 15795 5200 4.0 24 6 2 8 25% 15759 99937 22136 74%
c v  4.89 27 384 0 8 1920 39 15795 5080 4.0 24 6 2 8 25% 15759 99937 22136 74%
c w  4.97 27 384 0 8 1920 39 15795 5065 4.0 24 6 2 8 25% 15759 99937 22136 74%
c =  5.15 27 384 0 8 1920 39 15795 5065 4.0 24 6 2 8 25% 17097 99937 21467 71%
c d  5.16 27 384 0 8 1920 39 15795 5048 4.0 24 6 2 8 25% 15125 99937 21467 71%
c t  5.18 27 384 0 8 1920 39 15795 5048 4.0 24 6 2 8 25% 15116 99937 21467 71%
c f  5.20 27 384 0 8 1920 39 15795 5048 4.0 24 6 2 8 25% 15121 99923 21470 72%
c -  5.61 27 370 0 9 2050 37 17314 5649 3.8 23 6 2 8 25% 15171 99922 21470 72%
c o  6.12 27 342 0 9 2255 35 20030 7729 3.7 23 6 2 8 24% 15305 99918 21470 72%
c -  6.21 27 342 0 10 2302 35 20314 7100 3.7 23 6 2 8 24% 15324 99918 21470 72%
c -  7.00 27 324 0 11 2624 35 23476 8755 3.8 24 6 2 8 25% 15408 99914 21470 72%
c s  7.52 27 326 0 11 2821 35 25027 10064 3.9 25 6 2 8 25% 15479 96654 21470 72%
c e  7.67 27 326 0 11 2821 35 25027 10064 3.9 25 6 2 8 25% 11555 101545 19311 64%
c
c  seconds   switched     rate         size/glue tier1    binary           remaining
c         MB   reductions   conflicts        size  tier2      irredundant
c           level   restarts      redundant    glue   trail           variables
c
c 2  7.67 27 326 0 11 2821 35 25027 10064 3.9 25 6 2 8 25% 11553 101545 19311 64%
c s  7.68 27 326 0 11 2821 35 25027 10064 3.9 25 6 2 8 25% 11579 101179 19311 64%
c e  7.70 27 326 0 11 2821 35 25027 10064 3.9 25 6 2 8 25% 11518 101257 19289 64%
c ^  7.70 27 326 0 11 2821 35 25027 10064 3.9 25 6 2 8 25% 11518 101257 19289 64%
c -  8.08 27 327 0 12 2979 34 26792 8871 3.9 24 6 2 7 25% 11587 101251 19289 64%
c d  8.10 27 326 0 12 2980 34 26928 8943 3.9 24 6 2 7 25% 11256 101251 19087 64%
c u  8.17 27 326 0 12 2980 34 26928 7745 3.9 24 6 2 7 25% 11290 101251 19087 64%
c v  8.23 27 326 0 12 2980 34 26928 6811 3.9 24 6 2 7 25% 11290 101251 19087 64%
c w  8.24 27 326 0 12 2980 34 26928 6804 3.9 24 6 2 7 25% 11290 101251 19087 64%
c x  8.35 27 326 0 12 2980 34 26928 6803 3.9 24 6 2 7 25% 11333 99995 19087 64%
c =  8.67 27 326 0 12 2980 34 26928 6803 3.9 24 6 2 7 25% 14601 99989 17453 58%
c d  8.68 27 326 0 12 2980 34 26928 6615 3.9 24 6 2 7 25% 11197 99989 17452 58%
c t  8.71 27 326 0 12 2980 34 26928 6615 3.9 24 6 2 7 25% 11145 99989 17452 58%
c f  8.81 27 326 0 12 2980 34 26928 6615 3.9 24 6 2 7 25% 11230 99702 17513 58%
c u  8.87 27 326 0 12 2980 34 26928 6220 3.9 24 6 2 7 25% 11234 99702 17513 58%
c v  8.91 27 326 0 12 2980 34 26928 6094 3.9 24 6 2 7 25% 11234 99702 17513 58%
c w  8.92 27 326 0 12 2980 34 26928 6094 3.9 24 6 2 7 25% 11234 99702 17513 58%
c =  9.21 27 326 0 12 2980 34 26928 6094 3.9 24 6 2 7 25% 12378 99702 16941 56%
c d  9.22 27 326 0 12 2980 34 26928 6078 3.9 24 6 2 7 25% 11207 99702 16941 56%
c t  9.25 27 326 0 12 2980 34 26928 6078 3.9 24 6 2 7 25% 11175 99702 16941 56%
c
c  seconds   switched     rate        size/glue tier1    binary          remaining
c         MB   reductions   conflicts       size  tier2      irredundant
c           level   restarts     redundant    glue   trail          variables
c
c f  9.28 27 326 0 12 2980 34 26928 6078 3.9 24 6 2 7 25% 11189 99662 16949 56%
c -  9.92 27 320 0 13 3226 33 30256 8097 3.7 23 6 2 7 24% 11251 99660 16949 56%
c - 10.86 27 306 0 14 3584 32 33863 10234 3.7 23 6 2 7 24% 11305 99660 16949 56%
c - 11.41 27 301 0 15 3794 31 37604 12070 3.6 23 6 2 7 24% 11390 99660 16949 56%
c o 12.02 27 294 0 15 4045 31 40290 14433 3.6 22 6 2 7 24% 11439 99660 16949 56%
c c 12.49 27 293 0 15 4188 31 41259 15283 3.6 23 6 2 7 24% 11567 99085 16845 56%
c d 12.50 27 293 0 15 4188 31 41259 15054 3.6 23 6 2 7 24% 11359 99085 16845 56%
c u 12.58 27 293 0 15 4188 31 41259 12803 3.6 23 6 2 7 24% 11386 99085 16845 56%
c v 12.66 27 293 0 15 4188 31 41259 11843 3.6 23 6 2 7 24% 11390 99085 16845 56%
c w 12.73 27 293 0 15 4188 31 41259 11843 3.6 23 6 2 7 24% 11390 99085 16845 56%
c x 12.81 27 293 0 15 4188 31 41259 11840 3.6 23 6 2 7 24% 11390 95126 16845 56%
c = 13.09 27 293 0 15 4188 31 41259 11840 3.6 23 6 2 7 24% 11410 95126 16835 56%
c d 13.10 27 293 0 15 4188 31 41259 11803 3.6 23 6 2 7 24% 11369 95126 16828 56%
c t 13.12 27 293 0 15 4188 31 41259 11803 3.6 23 6 2 7 24% 11350 95126 16828 56%
c f 13.14 27 293 0 15 4188 31 41259 11803 3.6 23 6 2 7 24% 11352 95121 16829 56%
c u 13.23 27 293 0 15 4188 31 41259 11315 3.6 23 6 2 7 24% 11360 95121 16829 56%
c v 13.30 27 293 0 15 4188 31 41259 10694 3.6 23 6 2 7 24% 11364 95121 16829 56%
c w 13.41 27 293 0 15 4188 31 41259 10690 3.6 23 6 2 7 24% 11364 95121 16829 56%
c x 13.50 28 293 0 15 4188 31 41259 10689 3.6 23 6 2 7 24% 11366 90908 16829 56%
c = 13.80 28 293 0 15 4188 31 41259 10689 3.6 23 6 2 7 24% 11952 90908 16536 55%
c
c  seconds   switched     rate         size/glue tier1    binary          remaining
c         MB   reductions   conflicts        size  tier2      irredundant
c           level   restarts      redundant    glue   trail          variables
c
c d 13.81 28 293 0 15 4188 31 41259 10609 3.6 23 6 2 7 24% 11349 90908 16536 55%
c t 13.83 28 293 0 15 4188 31 41259 10609 3.6 23 6 2 7 24% 11341 90908 16536 55%
c - 13.88 28 295 0 16 4190 31 41476 9632 3.6 23 6 2 6 24% 11359 90904 16536 55%
c - 14.87 28 294 0 17 4595 31 45477 11777 3.5 23 7 2 6 24% 11442 90902 16536 55%
c - 15.94 28 285 0 18 5051 31 49602 13838 3.5 24 7 2 6 24% 11529 90902 16536 55%
c s 16.43 28 284 0 18 5217 31 52140 15975 3.5 24 7 2 6 23% 11597 82698 16536 55%
c e 16.55 28 284 0 18 5217 31 52140 15975 3.5 24 7 2 6 23% 10577 84316 16006 53%
c 2 16.55 28 284 0 18 5217 31 52140 15975 3.5 24 7 2 6 23% 10575 84316 16006 53%
c s 16.56 28 284 0 18 5217 31 52140 15975 3.5 24 7 2 6 23% 10587 83761 16006 53%
c e 16.58 28 284 0 18 5217 31 52140 15975 3.5 24 7 2 6 23% 10510 83881 15963 53%
c ^ 16.58 28 284 0 18 5217 31 52140 15975 3.5 24 7 2 6 23% 10510 83881 15963 53%
c - 16.81 28 286 0 19 5317 30 53846 14445 3.5 23 7 2 6 23% 10582 83881 15963 53%
c - 17.75 28 279 0 20 5780 30 58205 16218 3.5 24 7 2 6 23% 10677 83878 15963 53%
c c 17.94 28 279 0 20 5820 30 58886 16808 3.5 24 7 2 6 23% 10859 82870 15815 53%
c d 17.95 28 279 0 20 5820 30 58886 16508 3.5 24 7 2 6 23% 10563 82870 15815 53%
c u 18.05 28 279 0 20 5820 30 58886 13534 3.5 24 7 2 6 23% 10604 82870 15815 53%
c v 18.12 28 279 0 20 5820 30 58886 12123 3.5 24 7 2 6 23% 10615 82870 15815 53%
c w 18.17 28 279 0 20 5820 30 58886 12101 3.5 24 7 2 6 23% 10615 82870 15815 53%
c x 18.31 28 279 0 20 5820 30 58886 12094 3.5 24 7 2 6 23% 10671 81415 15815 53%
c = 18.69 28 279 0 20 5820 30 58886 12094 3.5 24 7 2 6 23% 12367 81415 14967 50%
c
c  seconds   switched     rate         size/glue tier1    binary          remaining
c         MB   reductions   conflicts        size  tier2      irredundant
c           level   restarts      redundant    glue   trail          variables
c
c d 18.70 28 279 0 20 5820 30 58886 11673 3.5 24 7 2 6 23% 10577 81415 14963 50%
c t 18.72 28 279 0 20 5820 30 58886 11673 3.5 24 7 2 6 23% 10444 81415 14963 50%
c f 18.78 28 279 0 20 5820 30 58886 11673 3.5 24 7 2 6 23% 10472 81262 14983 50%
c c 18.85 28 279 0 20 5820 30 58886 11664 3.5 24 7 2 6 23% 10478 81245 14979 50%
c d 18.86 28 279 0 20 5820 30 58886 11664 3.5 24 7 2 6 23% 10472 81245 14979 50%
c u 18.92 28 279 0 20 5820 30 58886 10764 3.5 24 7 2 6 23% 10478 81245 14979 50%
c v 18.97 28 279 0 20 5820 30 58886 10521 3.5 24 7 2 6 23% 10480 81245 14979 50%
c w 19.00 28 279 0 20 5820 30 58886 10507 3.5 24 7 2 6 23% 10480 81245 14979 50%
c x 19.18 28 279 0 20 5820 30 58886 10498 3.5 24 7 2 6 23% 10532 75134 14979 50%
c = 19.52 28 279 0 20 5820 30 58886 10498 3.5 24 7 2 6 23% 11166 75134 14662 49%
c d 19.53 28 279 0 20 5820 30 58886 10384 3.5 24 7 2 6 23% 10489 75134 14662 49%
c t 19.56 28 279 0 20 5820 30 58886 10384 3.5 24 7 2 6 23% 10398 75134 14662 49%
c f 19.58 28 279 0 20 5820 30 58886 10384 3.5 24 7 2 6 23% 10409 75014 14680 49%
c - 20.47 28 270 0 21 6160 30 62677 12477 3.5 23 7 2 6 23% 10464 75012 14680 49%
c - 21.36 28 268 0 22 6565 29 67260 15031 3.5 24 7 2 6 23% 10556 75012 14680 49%
c o 22.08 28 262 0 22 6897 29 70303 17622 3.5 24 7 2 6 23% 10621 75012 14680 49%
c - 22.53 28 261 0 23 7104 29 71951 17023 3.5 24 7 2 6 23% 10644 75012 14680 49%
c - 23.15 28 258 0 24 7361 28 76746 16704 3.5 24 7 1 5 23% 10742 75012 14680 49%
c d 23.90 28 253 0 24 7689 28 79954 19222 3.5 24 7 1 5 23% 10602 75011 14577 49%
c u 23.98 28 253 0 24 7689 28 79954 16990 3.5 24 7 1 5 23% 10631 75011 14577 49%
c
c  seconds   switched     rate         size/glue tier1    binary          remaining
c         MB   reductions   conflicts        size  tier2      irredundant
c           level   restarts      redundant    glue   trail          variables
c
c v 24.08 28 253 0 24 7689 28 79954 14424 3.5 24 7 1 5 23% 10645 75011 14577 49%
c w 24.24 28 253 0 24 7689 28 79954 14406 3.5 24 7 1 5 23% 10645 75011 14577 49%
c x 24.36 28 253 0 24 7689 28 79954 14402 3.5 24 7 1 5 23% 10649 72378 14577 49%
c = 24.81 28 253 0 24 7689 28 79954 14402 3.5 24 7 1 5 23% 11531 72373 14136 47%
c d 24.82 28 253 0 24 7689 28 79954 13931 3.5 24 7 1 5 23% 10558 72373 14135 47%
c t 24.84 28 253 0 24 7689 28 79954 13931 3.5 24 7 1 5 23% 10463 72373 14135 47%
c f 24.87 28 253 0 24 7689 28 79954 13931 3.5 24 7 1 5 23% 10487 72257 14151 47%
c c 24.94 28 253 0 24 7689 28 79954 13922 3.5 24 7 1 5 23% 10505 72199 14142 47%
c d 24.94 28 253 0 24 7689 28 79954 13922 3.5 24 7 1 5 23% 10487 72199 14142 47%
c u 25.00 28 253 0 24 7689 28 79954 13176 3.5 24 7 1 5 23% 10494 72199 14142 47%
c v 25.07 28 253 0 24 7689 28 79954 12596 3.5 24 7 1 5 23% 10497 72199 14142 47%
c w 25.26 28 253 0 24 7689 28 79954 12499 3.5 24 7 1 5 23% 10497 72199 14142 47%
c x 25.36 28 253 0 24 7689 28 79954 12496 3.5 24 7 1 5 23% 10509 70990 14142 47%
c = 25.82 28 253 0 24 7689 28 79954 12496 3.5 24 7 1 5 23% 10883 70986 13955 46%
c d 25.83 28 253 0 24 7689 28 79954 12328 3.5 24 7 1 5 23% 10474 70986 13954 46%
c t 25.85 28 253 0 24 7689 28 79954 12328 3.5 24 7 1 5 23% 10430 70986 13954 46%
c f 25.87 28 253 0 24 7689 28 79954 12328 3.5 24 7 1 5 23% 10438 70920 13964 47%
c - 26.28 28 249 0 25 7857 28 81644 11495 3.5 24 7 1 5 23% 10447 70920 13964 47%
c - 27.14 28 242 0 26 8235 27 86644 13801 3.4 24 7 1 5 22% 10477 70920 13964 47%
c - 28.35 28 235 0 27 8736 27 91747 15906 3.4 24 7 1 5 23% 10502 70920 13964 47%
c
c  seconds   switched     rate         size/glue tier1    binary          remaining
c         MB   reductions   conflicts        size  tier2      irredundant
c           level   restarts      redundant    glue   trail          variables
c
c s 29.38 28 232 0 27 9179 26 95794 19570 3.5 25 7 1 5 23% 10556 68908 13964 47%
c e 29.52 28 232 0 27 9179 26 95794 19570 3.5 25 7 1 5 23% 6884 77717 12112 40%
c 2 29.52 28 232 0 27 9179 26 95794 19570 3.5 25 7 1 5 23% 6878 77717 12112 40%
c s 29.55 28 232 0 27 9179 26 95794 19570 3.5 25 7 1 5 23% 6897 77180 12112 40%
c e 29.57 28 232 0 27 9179 26 95794 19570 3.5 25 7 1 5 23% 6808 77393 12068 40%
c ^ 29.57 28 232 0 27 9179 26 95794 19570 3.5 25 7 1 5 23% 6808 77393 12068 40%
c - 29.95 28 231 0 28 9341 27 96943 13116 3.4 25 7 1 5 23% 6814 77393 12068 40%
c - 31.08 28 225 0 29 9843 26 102234 15037 3.4 25 7 1 5 23% 6881 77392 12068 40%
c d 31.61 28 221 0 29 10081 26 104590 16763 3.4 25 7 1 5 23% 6833 77392 12028 40%
c u 31.69 28 221 0 29 10081 26 104590 14749 3.4 25 7 1 5 23% 6844 77392 12028 40%
c v 31.78 28 221 0 29 10081 26 104590 12416 3.4 25 7 1 5 23% 6855 77392 12028 40%
c w 32.01 28 221 0 29 10081 26 104590 12330 3.4 25 7 1 5 23% 6855 77392 12028 40%
c x 32.13 28 221 0 29 10081 26 104590 12329 3.4 25 7 1 5 23% 6857 77331 12028 40%
c = 32.70 28 221 0 29 10081 26 104590 12329 3.4 25 7 1 5 23% 7057 77319 11928 40%
c d 32.71 28 221 0 29 10081 26 104590 12106 3.4 25 7 1 5 23% 6819 77319 11928 40%
c t 32.72 28 221 0 29 10081 26 104590 12106 3.4 25 7 1 5 23% 6768 77319 11928 40%
c f 32.82 28 221 0 29 10081 26 104590 12106 3.4 25 7 1 5 23% 6787 77169 11940 40%
c u 32.89 28 221 0 29 10081 26 104590 11497 3.4 25 7 1 5 23% 6789 77169 11940 40%
c v 32.94 28 221 0 29 10081 26 104590 10925 3.4 25 7 1 5 23% 6791 77169 11940 40%
c w 33.17 28 221 0 29 10081 26 104590 10568 3.4 25 7 1 5 23% 6791 77169 11940 40%
c
c  seconds   switched      rate          size/glue tier1    binary         remaining
c         MB   reductions    conflicts         size  tier2     irredundant
c           level   restarts        redundant    glue   trail         variables
c
c t 33.75 28 221 0 29 10081 26 104590 10568 3.4 25 7 1 5 23% 6789 77169 11940 40%
c i 33.88 28 221 0 29 10111 26 105353 11226 3.4 25 7 1 5 23% 6801 77169 11938 40%
c - 34.49 28 218 0 30 10385 26 107621 11382 3.4 25 7 1 5 24% 6803 77169 11938 40%
c o 34.87 28 219 0 30 10532 25 110481 13885 3.3 25 7 1 5 24% 6815 77169 11938 40%
c - 35.68 28 217 0 31 10855 25 113098 14142 3.3 25 7 1 5 24% 6822 77169 11938 40%
c i 35.88 28 216 0 31 10955 25 114133 15065 3.3 25 7 1 5 24% 6830 77168 11937 40%
c - 36.89 28 211 0 32 11310 25 118665 16448 3.3 25 8 1 5 24% 6850 77165 11937 40%
c - 38.38 28 207 0 33 11988 25 124321 18300 3.3 26 8 1 5 25% 6865 77162 11937 40%
c - 39.64 28 202 0 34 12691 25 130065 19969 3.4 27 8 1 5 25% 6876 77161 11937 40%
c i 39.79 28 200 0 34 12788 25 131443 21167 3.4 27 8 1 5 25% 6904 77161 11936 40%
c u 40.19 28 199 0 34 12944 25 132846 19807 3.4 27 8 1 5 25% 6979 77127 11932 40%
c v 40.27 28 199 0 34 12944 25 132846 16334 3.4 27 8 1 5 25% 6994 77127 11930 40%
c w 40.43 28 199 0 34 12944 25 132846 16294 3.4 27 8 1 5 25% 6991 77127 11930 40%
c x 40.52 28 199 0 34 12944 25 132846 16277 3.4 27 8 1 5 25% 7024 76211 11930 40%
c d 40.53 28 199 0 34 12944 25 132846 16187 3.4 27 8 1 5 25% 6987 76210 11911 40%
c t 40.54 28 199 0 34 12944 25 132846 16187 3.4 27 8 1 5 25% 6943 76210 11911 40%
c u 40.60 28 199 0 34 12944 25 132846 15467 3.4 27 8 1 5 25% 6967 76210 11911 40%
c v 40.66 28 199 0 34 12944 25 132846 14762 3.4 27 8 1 5 25% 6969 76210 11911 40%
c w 40.85 28 199 0 34 12944 25 132846 14308 3.4 27 8 1 5 25% 6970 76210 11911 40%
c x 40.97 28 199 0 34 12944 25 132846 14300 3.4 27 8 1 5 25% 7001 74604 11911 40%
c
c  seconds   switched      rate          size/glue tier1    binary         remaining
c         MB   reductions    conflicts         size  tier2     irredundant
c           level   restarts        redundant    glue   trail         variables
c
c d 41.51 28 199 0 34 12944 25 132846 14300 3.4 27 8 1 5 25% 6999 74604 11910 40%
c t 41.52 28 199 0 34 12944 25 132846 14300 3.4 27 8 1 5 25% 6967 74604 11910 40%
c i 41.53 28 199 0 34 12944 25 132846 14300 3.4 27 8 1 5 25% 6967 74604 11910 40%
c i 41.76 28 198 0 34 13071 25 133800 15194 3.4 27 8 1 5 25% 6974 74602 11909 40%
c - 42.06 28 196 0 35 13230 25 135895 14599 3.4 27 8 1 5 25% 6943 74602 11909 40%
c i 42.08 28 196 0 35 13240 25 135938 14640 3.4 27 8 1 5 25% 6943 74602 11908 40%
c i 42.21 28 196 0 35 13321 25 136634 15279 3.4 27 8 1 5 25% 6950 74602 11906 40%
c i 42.66 28 193 0 35 13610 24 140177 18509 3.4 27 8 1 5 25% 6972 74598 11904 40%
c i 42.78 28 192 0 35 13687 24 141062 19308 3.3 27 8 1 5 25% 6982 74598 11902 40%
c i 42.88 28 191 0 35 13753 24 141690 19891 3.3 27 8 1 5 25% 6983 74598 11901 40%
c - 42.90 28 191 0 36 13771 24 141811 16865 3.3 27 8 1 5 25% 6967 74598 11901 40%
c i 42.93 28 191 0 36 13784 24 142083 17104 3.3 27 8 1 5 25% 6971 74598 11900 40%
c i 43.02 28 191 0 36 13839 24 142591 17586 3.3 27 8 1 5 25% 6973 74597 11897 40%
c i 43.11 28 191 0 36 13892 24 143017 17981 3.3 27 8 1 5 25% 6974 74597 11896 40%
c i 43.55 28 188 0 36 14151 24 145682 20481 3.3 27 8 1 5 26% 6989 74597 11894 40%
c i 43.58 28 187 0 36 14162 24 146139 20882 3.3 27 8 1 5 26% 6998 74597 11892 40%
c i 43.62 28 187 0 36 14189 24 146343 21069 3.3 27 8 1 5 26% 7000 74597 11890 40%
c - 43.83 28 186 0 37 14307 24 147813 18570 3.3 27 8 1 5 26% 6973 74596 11890 40%
c i 44.15 28 183 0 37 14504 23 150044 20647 3.3 27 8 1 5 26% 7011 74592 11889 40%
c i 44.17 28 183 0 37 14507 23 150262 20855 3.3 27 8 1 5 26% 7012 74592 11888 40%
c
c  seconds   switched      rate          size/glue tier1    binary         remaining
c         MB   reductions    conflicts         size  tier2     irredundant
c           level   restarts        redundant    glue   trail         variables
c
c i 44.34 28 182 0 37 14603 23 151310 21804 3.3 27 8 1 5 26% 7022 74592 11886 40%
c i 44.38 28 181 0 37 14625 23 152052 22474 3.3 27 8 1 5 26% 7026 74591 11885 40%
c - 44.52 28 178 0 38 14681 23 153895 20028 3.2 26 8 1 5 25% 7002 74591 11885 40%
c i 44.54 28 178 0 38 14689 23 154010 20125 3.2 26 8 1 5 25% 7006 74590 11884 40%
c i 44.69 28 178 0 38 14784 23 154775 20853 3.2 26 8 1 5 25% 7008 74590 11883 40%
c i 44.69 28 178 0 38 14785 23 154778 20854 3.2 26 8 1 5 25% 7008 74590 11882 40%
c i 44.74 28 177 0 38 14827 23 155035 21095 3.2 26 8 1 5 25% 7010 74590 11881 40%
c i 44.79 28 177 0 38 14858 23 155407 21445 3.2 26 8 1 5 25% 7013 74590 11880 40%
c i 44.85 28 177 0 38 14904 23 155701 21713 3.2 26 8 1 5 25% 7017 74590 11879 40%
c s 45.01 28 175 0 38 14979 22 157881 23681 3.2 26 8 1 5 26% 7028 74422 11879 40%
c e 45.12 28 175 0 38 14979 22 157881 23681 3.2 26 8 1 5 26% 3881 87810 10128 34%
c 2 45.12 28 175 0 38 14979 22 157881 23681 3.2 26 8 1 5 26% 3875 87810 10128 34%
c s 45.15 28 175 0 38 14979 22 157881 23681 3.2 26 8 1 5 26% 3896 86777 10128 34%
c e 45.17 28 175 0 38 14979 22 157881 23681 3.2 26 8 1 5 26% 3825 87007 10091 34%
c ^ 45.17 28 175 0 38 14979 22 157881 23681 3.2 26 8 1 5 26% 3825 87007 10091 34%
c i 45.31 28 174 0 38 15066 22 158662 17364 3.2 26 8 1 5 26% 3830 87007 10090 34%
c i 45.36 28 174 0 38 15096 22 158948 17621 3.2 26 8 1 5 26% 3836 87007 10088 34%
c i 45.50 28 173 0 38 15180 22 159881 18514 3.2 26 8 1 5 26% 3839 87007 10087 34%
c - 45.55 28 173 0 39 15216 22 160061 15640 3.2 26 8 1 5 26% 3840 86961 10087 34%
c o 45.62 28 172 0 39 15264 22 160679 16203 3.2 26 8 1 5 26% 3843 86961 10087 34%
c
c  seconds   switched      rate          size/glue tier1    binary         remaining
c         MB   reductions    conflicts         size  tier2     irredundant
c           level   restarts        redundant    glue   trail         variables
c
c i 45.67 28 172 0 39 15310 22 161521 16869 3.2 26 8 1 5 26% 3856 86959 10086 34%
c d 46.04 28 168 0 39 15489 22 164841 19899 3.1 25 8 1 5 26% 3862 86946 10080 34%
c d 46.04 28 168 0 39 15489 22 164841 19895 3.1 25 8 1 5 26% 3858 86946 10078 34%
c u 46.08 28 168 0 39 15489 22 164841 17802 3.1 25 8 1 5 26% 3878 86946 10078 34%
c v 46.16 28 168 0 39 15489 22 164841 14824 3.1 25 8 1 5 26% 3889 86946 10076 34%
c w 46.29 28 168 0 39 15489 22 164841 14710 3.1 25 8 1 5 26% 3889 86946 10076 34%
c x 46.37 28 168 0 39 15489 22 164841 14710 3.1 25 8 1 5 26% 3893 86898 10076 34%
c d 46.38 28 168 0 39 15489 22 164841 14690 3.1 25 8 1 5 26% 3889 86898 10074 34%
c t 46.39 28 168 0 39 15489 22 164841 14690 3.1 25 8 1 5 26% 3849 86898 10074 34%
c f 46.49 28 168 0 39 15489 22 164841 14690 3.1 25 8 1 5 26% 3932 85808 10122 34%
c u 46.54 28 168 0 39 15489 22 164841 14380 3.1 25 8 1 5 26% 3938 85808 10122 34%
c v 46.59 28 168 0 39 15489 22 164841 13862 3.1 25 8 1 5 26% 3938 85808 10122 34%
c w 46.75 28 168 0 39 15489 22 164841 13393 3.1 25 8 1 5 26% 3939 85808 10122 34%
c t 46.76 28 168 0 39 15489 22 164841 13393 3.1 25 8 1 5 26% 3936 85808 10122 34%
c i 46.77 28 168 0 39 15489 22 164841 13393 3.1 25 8 1 5 26% 3936 85808 10122 34%
c - 46.93 28 168 0 40 15552 21 166305 12206 3.1 25 8 1 5 26% 3925 85808 10122 34%
c i 47.11 28 166 0 40 15631 21 167813 13623 3.1 25 8 1 5 26% 3927 85808 10121 34%
c - 47.82 28 164 0 41 15990 21 172629 14853 3.0 25 8 1 5 26% 3928 85808 10121 34%
c - 48.74 28 160 0 42 16433 20 179032 17035 2.9 24 8 1 5 26% 3928 85808 10121 34%
c - 49.72 28 156 0 43 16995 20 185512 18587 2.9 24 8 1 5 27% 3928 85808 10121 34%
c
c  seconds   switched      rate          size/glue tier1    binary         remaining
c         MB   reductions    conflicts         size  tier2     irredundant
c           level   restarts        redundant    glue   trail         variables
c
c - 50.88 28 153 0 44 17680 20 192069 20060 2.8 23 8 1 5 27% 3928 85808 10121 34%
c - 52.01 28 149 0 45 18341 19 198702 21336 2.8 23 8 1 5 27% 3928 85808 10121 34%
c u 52.32 28 148 0 45 18456 19 200632 20622 2.8 23 8 1 5 27% 3941 85798 10121 34%
c v 52.43 28 148 0 45 18456 19 200632 16949 2.8 23 8 1 5 27% 3943 85798 10121 34%
c w 52.51 28 148 0 45 18456 19 200632 16638 2.8 23 8 1 5 27% 3943 85798 10121 34%
c x 52.60 28 148 0 45 18456 19 200632 16638 2.8 23 8 1 5 27% 3944 85793 10121 34%
c = 53.23 28 148 0 45 18456 19 200632 16638 2.8 23 8 1 5 27% 4030 85390 10057 33%
c d 53.24 28 148 0 45 18456 19 200632 16375 2.8 23 8 1 5 27% 3960 85369 10057 33%
c t 53.24 28 148 0 45 18456 19 200632 16375 2.8 23 8 1 5 27% 3945 85369 10057 33%
c u 53.30 28 148 0 45 18456 19 200632 16018 2.8 23 8 1 5 27% 3949 85369 10056 33%
c v 53.37 28 148 0 45 18456 19 200632 15325 2.8 23 8 1 5 27% 3949 85369 10056 33%
c w 53.44 28 148 0 45 18456 19 200632 15124 2.8 23 8 1 5 27% 3949 85369 10056 33%
c t 53.45 28 148 0 45 18456 19 200632 15123 2.8 23 8 1 5 27% 3948 85355 10056 33%
c i 53.46 28 148 0 45 18456 19 200632 15123 2.8 23 8 1 5 27% 3948 85355 10056 33%
c i 53.56 28 147 0 45 18497 19 201758 16169 2.7 23 8 1 5 27% 3952 85353 9947 33%
c i 53.56 28 147 0 45 18501 19 201780 16185 2.7 23 8 1 5 27% 3953 85353 9943 33%
c } 53.56 28 147 0 45 18501 19 201787 16187 2.7 23 8 1 5 27% 3955 85353 9910 33%
c 0 53.56 28 147 0 45 18501 19 201787 16187 2.7 23 8 1 5 27% 3955 85353 9910 33%
c
c ---- [ result ] ------------------------------------------------------------
c
s UNSATISFIABLE
c
c ---- [ profiling ] ---------------------------------------------------------
c
c          38.59   72.06 %  search
c          38.59   72.06 %  focused
c          14.58   27.23 %  simplify
c          13.87   25.90 %  probe
c           5.75   10.73 %  sweep
c           5.72   10.68 %  vivify
c           0.92    1.73 %  factor
c           0.91    1.70 %  eliminate
c           0.64    1.20 %  substitute
c           0.58    1.08 %  congruence
c           0.33    0.62 %  preprocess
c           0.28    0.52 %  reduce
c           0.17    0.32 %  transitive
c           0.17    0.31 %  subsume
c           0.14    0.25 %  fastel
c           0.08    0.15 %  backbone
c           0.03    0.05 %  lucky
c           0.02    0.04 %  parse
c =============================================
c          53.56  100.00 %  total
c
c ---- [ statistics ] --------------------------------------------------------
c
c chronological:                         6893                3 %  conflicts
c conflicts:                           201787             3767.72 per second
c congruent:                             2739                9 %  variables
c decisions:                          4320128               21.41 per conflict
c eliminated:                           16679               56 %  variables
c factored:                              6303               21 %  variables
c fast_eliminated:                       9374               56 %  eliminated
c fast_strengthened:                      154                5 %  per strengthened
c fast_subsumed:                           77                0 %  per subsumed
c iterations:                              34                0 %  variables
c propagations:                     174049421          3249815    per second
c reductions:                              45             4484    interval
c reordered:                                6            33631    interval
c restarts:                             18501               11    interval
c strengthened:                          2902                0 %  checks
c substituted:                           9508               32 %  variables
c subsumed:                             18441                1 %  checks
c switched:                                 0                0    interval
c vivified:                             91168               13 %  checks
c
c ---- [ glue usage ] --------------------------------------------------------
c
c focused glue 1 used 357242 clauses 60.97% accumulated 60.97% tier1
c focused glue 2 used 107939 clauses 18.42% accumulated 79.39%
c focused glue 3 used  35050 clauses  5.98% accumulated 85.37%
c focused glue 4 used  21107 clauses  3.60% accumulated 88.97%
c focused glue 5 used  13384 clauses  2.28% accumulated 91.25% tier2
c
c ---- [ resources ] ---------------------------------------------------------
c
c maximum-resident-set-size:         29097984 bytes         28 MB
c process-time:                            54s              53.56 seconds
c
c ---- [ shutting down ] -----------------------------------------------------
c
c exit 20
